certificates/rado_a5_c271_N53.drat
-46 -53 0
d -40 -46 -53 0
-11 -53 0
d -11 -5 -53 0
-53 0
47 0
-11 0
5 0
17 0
-46 0
-41 0
-48 0
40 0
52 0
12 0
10 0
35 0
42 0
22 0
15 0
7 0
-4 0
-29 0
-51 0
-16 0
-6 0
-18 0
-36 0
-28 0
-1 0
-23 0
-21 0
-24 0
-31 0
-33 0
-26 0
-43 0
45 0
13 0
0
